(declare-const x0 Real)
(assert (<= 0.0 x0))
(declare-const x1 Real)
(assert (<= 0.0 x1))
(declare-const x2 Real)
(assert (<= (- 0.550000) x2))
(declare-const x3 Real)
(assert (<= (- 0.550000) x3))
(declare-const x4 Real)
(assert (<= 196.0 x4))
(declare-const x5 Real)
(assert (<= 196.0 x5))
(declare-const x6 Real)
(assert (<= 196.0 x6))
(declare-const x7 Real)
(assert (<= (- 400.0) x7))
(declare-const x8 Real)
(assert (<= (- 400.0) x8))

(assert (<= (- 2250000.0) (- (- (^ x7 2.0)) (^ x0 2.0))))
(assert (<= (- 2250000.0) (- (- (^ x8 2.0)) (^ x1 2.0))))
(assert (= (+ (* (- 50.176000) x0) (+ (* (* x4 x5) (sin (+ (- 0.250000) (- x2)))) (* (* x4 x6) (sin (+ (- 0.250000) (- x3)))) (* 0.494808 (^ x4 2.0)))) (- 20070.400000)))
(assert (= (+ (* (- 50.176000) x1) (+ (* (* x4 x5) (sin (+ (- 0.250000) x2))) (* (* x5 x6) (sin (+ (- 0.250000) (- x2 x3)))) (* 0.494808 (^ x5 2.0)))) (- 20070.400000)))
(assert (= (+ (* (* x4 x6) (sin (+ (- 0.250000) x3))) (* (* x5 x6) (sin (+ (- 0.250000) (- x3 x2)))) (* 0.494808 (^ x6 2.0))) (- 44244.143104)))
(assert (= (+ (* 50.176000 x7) (+ (* (* x4 x5) (cos (+ (- 0.250000) (- x2)))) (* (* x4 x6) (cos (+ (- 0.250000) (- x3)))) (* (- 1.937825) (^ x4 2.0)) (* 0.037798 (^ x4 2.0)))) 10035.200000))
(assert (= (+ (* 50.176000 x8) (+ (* (* x4 x5) (cos (+ (- 0.250000) x2))) (* (* x5 x6) (cos (+ (- 0.250000) (- x2 x3)))) (* (- 1.937825) (^ x5 2.0)) (* 0.037798 (^ x5 2.0)))) 10035.200000))
(assert (= (+ (* (* x4 x6) (cos (+ (- 0.250000) x3))) (* (* x5 x6) (cos (+ (- 0.250000) (- x3 x2)))) (* (- 1.937825) (^ x6 2.0)) (* 0.037798 (^ x6 2.0))) (- 1150.937088)))
(assert (<= (- 0.550000) (+ (* (- 1.0) x2) (* 1.0 x3))))
(assert (<= (- 0.550000) (+ (* 1.0 x2) (* (- 1.0) x3))))

(minimize
	(+ (* 3.0 x0) (* 2.0 x1) (+ (* 0.000001 (^ x0 3.0)) (* 0.000001 (^ x1 3.0))))
)
(check-sat)
(get-objectives)
(exit)

